h=9;
w=9;
s=3;
b=[|5,0,1,6,0,2,0,4,9|0,0,6,7,8,0,0,0,0|2,0,0,4,0,5,0,6,8|0,1,0,0,0,0,0,0,0|3,6,5,8,0,4,0,9,1|0,0,0,5,9,0,0,8,3|0,0,0,9,5,0,8,0,0|0,0,3,1,4,8,9,2,0|0,4,8,0,0,0,1,0,6|];
t=[|1,0,1,0,1,0,1,0,1|0,1,0,1,0,1,1,1,0|0,1,1,0,1,1,1,0,0|0,1,1,0,0,1,0,1,1|1,0,1,0,1,0,0,1,1|1,0,0,1,1,1,0,0,1|1,1,0,1,1,0,0,1,0|0,1,1,1,0,0,1,0,1|1,0,0,1,0,1,1,1,0|];
